15 4 
1781	1781	1781	1781	
575	285	421	
926	753	1467	
206	39	48	
689	166	317	
779	747	1393	
927	964	1105	
188	532	1052	
296	613	1200	
591	302	407	
102	933	1848	
277	324	554	
168	200	313	
923	766	1348	
176	228	360	
48	275	344	
